language Essence 1.3

letting bot_end be [1007, 969, 1025, 970, 98, 984, 1006, 896, 151, 928, 27, 988, 113, 18, 1009; int(1..15)]
letting bot_start be [29, 32, 99, 73, 1006, 58, 3, 18, 969, 1, 1025, 112, 950, 836, 132; int(1..15)]
letting buffer_col be 2
letting buffer_row be 2
letting corridor_size be 1
letting n_shelves_col be 5
letting n_shelves_row be 25
letting shelf_col_size be 2
letting shelf_row_size be 1
